p cnf 196 1
196 0
w 1 0.405549
w 2 1 1
w 2 -1 0
w 3 2 0
w 3 -2 1
w 4 3 0.713078
w 4 -3 0.0319955
w 5 4 0
w 5 -4 1
w 6 5 0
w 6 -5 1
w 7 6 0
w 7 -6 1
w 8 7 0.871342
w 8 -7 0.961572
w 9 8 1
w 9 -8 0
w 10 9 1
w 10 -9 0
w 11 10 0.286188
w 11 -10 0.264804
w 12 11 0.703767
w 12 -11 0.0921464
w 13 12 1
w 13 -12 0
w 14 13 0
w 14 -13 1
w 15 1 0
w 15 -1 1
w 16 15 2 1
w 16 15 -2 0
w 16 -15 2 1
w 16 -15 -2 0
w 17 16 3 1
w 17 16 -3 0
w 17 -16 3 0
w 17 -16 -3 1
w 18 17 4 0.0602001
w 18 17 -4 0.74293
w 18 -17 4 0.672817
w 18 -17 -4 0.0217718
w 19 18 5 1
w 19 18 -5 1
w 19 -18 5 0
w 19 -18 -5 1
w 20 19 6 0
w 20 19 -6 1
w 20 -19 6 0
w 20 -19 -6 0
w 21 20 7 0
w 21 20 -7 1
w 21 -20 7 0
w 21 -20 -7 1
w 22 21 8 0
w 22 21 -8 0
w 22 -21 8 1
w 22 -21 -8 1
w 23 22 9 1
w 23 22 -9 0
w 23 -22 9 0
w 23 -22 -9 0
w 24 23 10 1
w 24 23 -10 1
w 24 -23 10 1
w 24 -23 -10 0
w 25 24 11 1
w 25 24 -11 1
w 25 -24 11 0
w 25 -24 -11 0
w 26 25 12 0
w 26 25 -12 1
w 26 -25 12 1
w 26 -25 -12 1
w 27 26 13 1
w 27 26 -13 0
w 27 -26 13 0
w 27 -26 -13 0
w 28 27 14 0
w 28 27 -14 0
w 28 -27 14 1
w 28 -27 -14 1
w 29 15 1
w 29 -15 0
w 30 29 16 0
w 30 29 -16 1
w 30 -29 16 1
w 30 -29 -16 1
w 31 30 17 0
w 31 30 -17 1
w 31 -30 17 1
w 31 -30 -17 0
w 32 31 18 0.0483777
w 32 31 -18 0.139779
w 32 -31 18 0.818535
w 32 -31 -18 0.585421
w 33 32 19 1
w 33 32 -19 0
w 33 -32 19 1
w 33 -32 -19 1
w 34 33 20 0.377958
w 34 33 -20 0.625932
w 34 -33 20 0.267789
w 34 -33 -20 0.474488
w 35 34 21 1
w 35 34 -21 1
w 35 -34 21 0
w 35 -34 -21 1
w 36 35 22 0.536211
w 36 35 -22 0.156246
w 36 -35 22 0.596015
w 36 -35 -22 0.210464
w 37 36 23 1
w 37 36 -23 0
w 37 -36 23 1
w 37 -36 -23 1
w 38 37 24 1
w 38 37 -24 1
w 38 -37 24 0
w 38 -37 -24 1
w 39 38 25 0.295682
w 39 38 -25 0.215238
w 39 -38 25 0.19621
w 39 -38 -25 0.2489
w 40 39 26 0.960009
w 40 39 -26 0.626858
w 40 -39 26 0.390999
w 40 -39 -26 0.227798
w 41 40 27 0
w 41 40 -27 1
w 41 -40 27 0
w 41 -40 -27 0
w 42 41 28 0
w 42 41 -28 0
w 42 -41 28 1
w 42 -41 -28 0
w 43 29 0.162648
w 43 -29 0.0208003
w 44 43 30 1
w 44 43 -30 0
w 44 -43 30 1
w 44 -43 -30 1
w 45 44 31 0
w 45 44 -31 0
w 45 -44 31 0
w 45 -44 -31 1
w 46 45 32 0.343289
w 46 45 -32 0.633074
w 46 -45 32 0.757901
w 46 -45 -32 0.303298
w 47 46 33 1
w 47 46 -33 1
w 47 -46 33 0
w 47 -46 -33 1
w 48 47 34 0
w 48 47 -34 0
w 48 -47 34 1
w 48 -47 -34 1
w 49 48 35 0
w 49 48 -35 1
w 49 -48 35 0
w 49 -48 -35 0
w 50 49 36 1
w 50 49 -36 0
w 50 -49 36 1
w 50 -49 -36 1
w 51 50 37 1
w 51 50 -37 1
w 51 -50 37 0
w 51 -50 -37 1
w 52 51 38 0
w 52 51 -38 1
w 52 -51 38 1
w 52 -51 -38 1
w 53 52 39 1
w 53 52 -39 0
w 53 -52 39 0
w 53 -52 -39 0
w 54 53 40 0
w 54 53 -40 1
w 54 -53 40 1
w 54 -53 -40 0
w 55 54 41 0
w 55 54 -41 0
w 55 -54 41 0
w 55 -54 -41 1
w 56 55 42 0
w 56 55 -42 0
w 56 -55 42 1
w 56 -55 -42 1
w 57 43 0.887831
w 57 -43 0.227002
w 58 57 44 0.220347
w 58 57 -44 0.65281
w 58 -57 44 0.317347
w 58 -57 -44 0.185936
w 59 58 45 0.983237
w 59 58 -45 0.411458
w 59 -58 45 0.169128
w 59 -58 -45 0.180224
w 60 59 46 0.457156
w 60 59 -46 0.80232
w 60 -59 46 0.553925
w 60 -59 -46 0.71534
w 61 60 47 1
w 61 60 -47 1
w 61 -60 47 0
w 61 -60 -47 1
w 62 61 48 0
w 62 61 -48 0
w 62 -61 48 0
w 62 -61 -48 1
w 63 62 49 1
w 63 62 -49 0
w 63 -62 49 1
w 63 -62 -49 1
w 64 63 50 0.182476
w 64 63 -50 0.68374
w 64 -63 50 0.417434
w 64 -63 -50 0.499823
w 65 64 51 0.253953
w 65 64 -51 0.48306
w 65 -64 51 0.281135
w 65 -64 -51 0.423081
w 66 65 52 0
w 66 65 -52 1
w 66 -65 52 1
w 66 -65 -52 0
w 67 66 53 1
w 67 66 -53 1
w 67 -66 53 0
w 67 -66 -53 1
w 68 67 54 0.646639
w 68 67 -54 0.928325
w 68 -67 54 0.189845
w 68 -67 -54 0.282712
w 69 68 55 0
w 69 68 -55 1
w 69 -68 55 1
w 69 -68 -55 1
w 70 69 56 0.892313
w 70 69 -56 0.00540899
w 70 -69 56 0.391598
w 70 -69 -56 0.392136
w 71 57 0.645551
w 71 -57 0.875196
w 72 71 58 1
w 72 71 -58 0
w 72 -71 58 1
w 72 -71 -58 0
w 73 72 59 1
w 73 72 -59 1
w 73 -72 59 1
w 73 -72 -59 0
w 74 73 60 0
w 74 73 -60 1
w 74 -73 60 1
w 74 -73 -60 0
w 75 74 61 1
w 75 74 -61 1
w 75 -74 61 1
w 75 -74 -61 0
w 76 75 62 0.899539
w 76 75 -62 0.743946
w 76 -75 62 0.732576
w 76 -75 -62 0.791852
w 77 76 63 0
w 77 76 -63 1
w 77 -76 63 0
w 77 -76 -63 0
w 78 77 64 1
w 78 77 -64 1
w 78 -77 64 0
w 78 -77 -64 1
w 79 78 65 0.601749
w 79 78 -65 0.48521
w 79 -78 65 0.331674
w 79 -78 -65 0.226996
w 80 79 66 0
w 80 79 -66 1
w 80 -79 66 0
w 80 -79 -66 1
w 81 80 67 0
w 81 80 -67 0
w 81 -80 67 1
w 81 -80 -67 1
w 82 81 68 0
w 82 81 -68 0
w 82 -81 68 0
w 82 -81 -68 1
w 83 82 69 0
w 83 82 -69 1
w 83 -82 69 1
w 83 -82 -69 0
w 84 83 70 1
w 84 83 -70 0
w 84 -83 70 0
w 84 -83 -70 0
w 85 71 0
w 85 -71 1
w 86 85 72 0.94359
w 86 85 -72 0.818153
w 86 -85 72 0.875936
w 86 -85 -72 0.909916
w 87 86 73 0.435827
w 87 86 -73 0.157533
w 87 -86 73 0.0463506
w 87 -86 -73 0.703304
w 88 87 74 0.647796
w 88 87 -74 0.160482
w 88 -87 74 0.203051
w 88 -87 -74 0.00765418
w 89 88 75 0
w 89 88 -75 1
w 89 -88 75 0
w 89 -88 -75 1
w 90 89 76 1
w 90 89 -76 0
w 90 -89 76 0
w 90 -89 -76 1
w 91 90 77 0
w 91 90 -77 1
w 91 -90 77 1
w 91 -90 -77 0
w 92 91 78 0.574394
w 92 91 -78 0.683222
w 92 -91 78 0.788786
w 92 -91 -78 0.450329
w 93 92 79 0
w 93 92 -79 1
w 93 -92 79 0
w 93 -92 -79 1
w 94 93 80 0
w 94 93 -80 1
w 94 -93 80 1
w 94 -93 -80 0
w 95 94 81 0
w 95 94 -81 0
w 95 -94 81 0
w 95 -94 -81 1
w 96 95 82 0
w 96 95 -82 0
w 96 -95 82 1
w 96 -95 -82 0
w 97 96 83 1
w 97 96 -83 0
w 97 -96 83 0
w 97 -96 -83 0
w 98 97 84 1
w 98 97 -84 0
w 98 -97 84 1
w 98 -97 -84 1
w 99 85 1
w 99 -85 0
w 100 99 86 1
w 100 99 -86 0
w 100 -99 86 1
w 100 -99 -86 1
w 101 100 87 1
w 101 100 -87 0
w 101 -100 87 1
w 101 -100 -87 1
w 102 101 88 0
w 102 101 -88 0
w 102 -101 88 0
w 102 -101 -88 1
w 103 102 89 0
w 103 102 -89 1
w 103 -102 89 0
w 103 -102 -89 0
w 104 103 90 0
w 104 103 -90 0
w 104 -103 90 1
w 104 -103 -90 1
w 105 104 91 0.603923
w 105 104 -91 0.228568
w 105 -104 91 0.182289
w 105 -104 -91 0.919035
w 106 105 92 1
w 106 105 -92 0
w 106 -105 92 0
w 106 -105 -92 1
w 107 106 93 1
w 107 106 -93 0
w 107 -106 93 0
w 107 -106 -93 0
w 108 107 94 1
w 108 107 -94 0
w 108 -107 94 0
w 108 -107 -94 0
w 109 108 95 0
w 109 108 -95 1
w 109 -108 95 0
w 109 -108 -95 0
w 110 109 96 0
w 110 109 -96 0
w 110 -109 96 0
w 110 -109 -96 1
w 111 110 97 0
w 111 110 -97 1
w 111 -110 97 0
w 111 -110 -97 0
w 112 111 98 1
w 112 111 -98 0
w 112 -111 98 0
w 112 -111 -98 0
w 113 99 1
w 113 -99 0
w 114 113 100 0
w 114 113 -100 1
w 114 -113 100 1
w 114 -113 -100 1
w 115 114 101 1
w 115 114 -101 1
w 115 -114 101 1
w 115 -114 -101 0
w 116 115 102 1
w 116 115 -102 0
w 116 -115 102 1
w 116 -115 -102 0
w 117 116 103 1
w 117 116 -103 0
w 117 -116 103 0
w 117 -116 -103 1
w 118 117 104 0.922067
w 118 117 -104 0.8667
w 118 -117 104 0.363395
w 118 -117 -104 0.231988
w 119 118 105 1
w 119 118 -105 1
w 119 -118 105 0
w 119 -118 -105 1
w 120 119 106 0
w 120 119 -106 1
w 120 -119 106 0
w 120 -119 -106 1
w 121 120 107 0.766262
w 121 120 -107 0.508024
w 121 -120 107 0.159805
w 121 -120 -107 0.146103
w 122 121 108 0
w 122 121 -108 1
w 122 -121 108 1
w 122 -121 -108 1
w 123 122 109 0
w 123 122 -109 0
w 123 -122 109 0
w 123 -122 -109 1
w 124 123 110 0
w 124 123 -110 1
w 124 -123 110 0
w 124 -123 -110 1
w 125 124 111 0
w 125 124 -111 1
w 125 -124 111 0
w 125 -124 -111 0
w 126 125 112 0
w 126 125 -112 1
w 126 -125 112 1
w 126 -125 -112 1
w 127 113 0
w 127 -113 1
w 128 127 114 0
w 128 127 -114 1
w 128 -127 114 0
w 128 -127 -114 0
w 129 128 115 0
w 129 128 -115 0
w 129 -128 115 1
w 129 -128 -115 0
w 130 129 116 1
w 130 129 -116 0
w 130 -129 116 0
w 130 -129 -116 0
w 131 130 117 0
w 131 130 -117 0
w 131 -130 117 1
w 131 -130 -117 1
w 132 131 118 1
w 132 131 -118 1
w 132 -131 118 1
w 132 -131 -118 0
w 133 132 119 0
w 133 132 -119 1
w 133 -132 119 1
w 133 -132 -119 1
w 134 133 120 1
w 134 133 -120 0
w 134 -133 120 1
w 134 -133 -120 1
w 135 134 121 1
w 135 134 -121 1
w 135 -134 121 0
w 135 -134 -121 1
w 136 135 122 0
w 136 135 -122 1
w 136 -135 122 0
w 136 -135 -122 1
w 137 136 123 0
w 137 136 -123 1
w 137 -136 123 1
w 137 -136 -123 1
w 138 137 124 0.459493
w 138 137 -124 0.268709
w 138 -137 124 0.863687
w 138 -137 -124 0.981852
w 139 138 125 1
w 139 138 -125 0
w 139 -138 125 0
w 139 -138 -125 0
w 140 139 126 1
w 140 139 -126 1
w 140 -139 126 1
w 140 -139 -126 0
w 141 127 1
w 141 -127 0
w 142 141 128 1
w 142 141 -128 0
w 142 -141 128 0
w 142 -141 -128 0
w 143 142 129 0
w 143 142 -129 1
w 143 -142 129 1
w 143 -142 -129 0
w 144 143 130 0
w 144 143 -130 1
w 144 -143 130 0
w 144 -143 -130 0
w 145 144 131 0.837534
w 145 144 -131 0.293848
w 145 -144 131 0.441183
w 145 -144 -131 0.824144
w 146 145 132 0.198402
w 146 145 -132 0.06417
w 146 -145 132 0.927364
w 146 -145 -132 0.776278
w 147 146 133 0.919522
w 147 146 -133 0.517275
w 147 -146 133 0.918743
w 147 -146 -133 0.402904
w 148 147 134 0.0232272
w 148 147 -134 0.572544
w 148 -147 134 0.837686
w 148 -147 -134 0.43108
w 149 148 135 0
w 149 148 -135 1
w 149 -148 135 0
w 149 -148 -135 0
w 150 149 136 0
w 150 149 -136 0
w 150 -149 136 0
w 150 -149 -136 1
w 151 150 137 0.380859
w 151 150 -137 0.300862
w 151 -150 137 0.227646
w 151 -150 -137 0.822042
w 152 151 138 1
w 152 151 -138 1
w 152 -151 138 0
w 152 -151 -138 1
w 153 152 139 0.14155
w 153 152 -139 0.87439
w 153 -152 139 0.313997
w 153 -152 -139 0.0602932
w 154 153 140 0
w 154 153 -140 1
w 154 -153 140 1
w 154 -153 -140 0
w 155 141 0
w 155 -141 1
w 156 155 142 0
w 156 155 -142 0
w 156 -155 142 1
w 156 -155 -142 0
w 157 156 143 0.810608
w 157 156 -143 0.906436
w 157 -156 143 0.263475
w 157 -156 -143 0.744406
w 158 157 144 1
w 158 157 -144 1
w 158 -157 144 1
w 158 -157 -144 0
w 159 158 145 0.129781
w 159 158 -145 0.878519
w 159 -158 145 0.954424
w 159 -158 -145 0.926503
w 160 159 146 0
w 160 159 -146 1
w 160 -159 146 1
w 160 -159 -146 0
w 161 160 147 0
w 161 160 -147 1
w 161 -160 147 0
w 161 -160 -147 1
w 162 161 148 0.0395927
w 162 161 -148 0.565786
w 162 -161 148 0.129494
w 162 -161 -148 0.154497
w 163 162 149 0.929641
w 163 162 -149 0.965105
w 163 -162 149 0.866556
w 163 -162 -149 0.193115
w 164 163 150 0
w 164 163 -150 0
w 164 -163 150 1
w 164 -163 -150 0
w 165 164 151 1
w 165 164 -151 0
w 165 -164 151 0
w 165 -164 -151 0
w 166 165 152 0
w 166 165 -152 0
w 166 -165 152 1
w 166 -165 -152 0
w 167 166 153 1
w 167 166 -153 0
w 167 -166 153 0
w 167 -166 -153 1
w 168 167 154 0
w 168 167 -154 0
w 168 -167 154 1
w 168 -167 -154 0
w 169 155 0.522542
w 169 -155 0.897084
w 170 169 156 1
w 170 169 -156 0
w 170 -169 156 0
w 170 -169 -156 0
w 171 170 157 0
w 171 170 -157 0
w 171 -170 157 1
w 171 -170 -157 1
w 172 171 158 0
w 172 171 -158 0
w 172 -171 158 1
w 172 -171 -158 0
w 173 172 159 1
w 173 172 -159 1
w 173 -172 159 0
w 173 -172 -159 0
w 174 173 160 0
w 174 173 -160 0
w 174 -173 160 1
w 174 -173 -160 0
w 175 174 161 1
w 175 174 -161 1
w 175 -174 161 0
w 175 -174 -161 1
w 176 175 162 0.162571
w 176 175 -162 0.460574
w 176 -175 162 0.38795
w 176 -175 -162 0.976997
w 177 176 163 0.67611
w 177 176 -163 0.0546129
w 177 -176 163 0.853587
w 177 -176 -163 0.64539
w 178 177 164 0
w 178 177 -164 1
w 178 -177 164 1
w 178 -177 -164 0
w 179 178 165 0
w 179 178 -165 1
w 179 -178 165 0
w 179 -178 -165 1
w 180 179 166 1
w 180 179 -166 1
w 180 -179 166 1
w 180 -179 -166 0
w 181 180 167 1
w 181 180 -167 0
w 181 -180 167 0
w 181 -180 -167 0
w 182 181 168 1
w 182 181 -168 0
w 182 -181 168 0
w 182 -181 -168 1
w 183 169 1
w 183 -169 0
w 184 183 170 0.589959
w 184 183 -170 0.96973
w 184 -183 170 0.604389
w 184 -183 -170 0.115158
w 185 184 171 0
w 185 184 -171 0
w 185 -184 171 1
w 185 -184 -171 0
w 186 185 172 1
w 186 185 -172 0
w 186 -185 172 0
w 186 -185 -172 0
w 187 186 173 1
w 187 186 -173 0
w 187 -186 173 0
w 187 -186 -173 0
w 188 187 174 0.989728
w 188 187 -174 0.817845
w 188 -187 174 0.250763
w 188 -187 -174 0.711613
w 189 188 175 0
w 189 188 -175 0
w 189 -188 175 1
w 189 -188 -175 1
w 190 189 176 0
w 190 189 -176 0
w 190 -189 176 1
w 190 -189 -176 1
w 191 190 177 0
w 191 190 -177 0
w 191 -190 177 1
w 191 -190 -177 0
w 192 191 178 1
w 192 191 -178 0
w 192 -191 178 1
w 192 -191 -178 1
w 193 192 179 0.248581
w 193 192 -179 0.00670858
w 193 -192 179 0.991646
w 193 -192 -179 0.952843
w 194 193 180 0.981374
w 194 193 -180 0.770689
w 194 -193 180 0.112457
w 194 -193 -180 0.692986
w 195 194 181 0
w 195 194 -181 0
w 195 -194 181 1
w 195 -194 -181 0
w 196 195 182 0
w 196 195 -182 1
w 196 -195 182 1
w 196 -195 -182 0